1 2704 10
2 2215 10
4 2152 10
5 2130 10
6 2107 10
10 2062 10
19 2060 10
41 2005 10
182 1982 10



1 2638 10
2 2272 10
3 2136 10
4 2101 10
6 2048 10
24 2038 10
41 2012 10
56 1987 10
167 1984 10
590 1970 10



1 2576 10
2 2209 10
3 2127 10
7 2106 10
14 2091 10
16 2060 10
38 2049 10
71 2022 10
78 2019 10
139 1983 10
300 1969 10
316 1952 10



1 2546 11
2 2227 10
3 2192 10
4 2168 10
5 2096 10
18 2091 10
26 2078 10
31 2070 10
33 2068 10
41 2059 10
45 2050 10
47 2029 10
75 2023 10
109 2013 10
127 1999 10
408 1998 10
670 1967 10



1 2730 11
2 2159 10
4 2023 10
10 2020 10
46 2011 10
181 1996 10
206 1983 10
931 1971 10



